Copyright (C) 2013-2015, Filipe Brandao
Build (method = -2)
  #dp: 315
  Step-3' Graph: 28 vertices and 149 arcs (0.00s)
  Step-4' Graph: 21 vertices and 135 arcs (0.00s)
  #V4/#V3 = 0.75
  #A4/#A3 = 0.91
Ready! (0.00s)
Optimize a model with 46 rows, 136 columns and 371 nonzeros
Found heuristic solution: objective 46
Presolve removed 17 rows and 22 columns
Presolve time: 0.00s
Presolved: 29 rows, 114 columns, 302 nonzeros
Variable types: 0 continuous, 114 integer (20 binary)
Optimize a model with 29 rows, 114 columns and 302 nonzeros
Presolved: 29 rows, 114 columns, 302 nonzeros

Root barrier log...

Ordering time: 0.00s

Barrier statistics:
 AA' NZ     : 1.330e+02
 Factor NZ  : 3.600e+02
 Factor Ops : 5.630e+03 (less than 1 second per iteration)
 Threads    : 1

                  Objective                Residual
Iter       Primal          Dual         Primal    Dual     Compl     Time
   0   2.35405643e+02 -3.29125742e+02  3.15e+02 2.29e-01  9.87e+00     0s
   1   7.26302227e+01 -1.49355412e+02  2.39e+01 5.55e-16  1.39e+00     0s
   2   3.98154228e+01  4.16203138e-01  3.61e-01 3.33e-16  1.69e-01     0s
   3   3.05005214e+01  1.62397125e+01  6.75e-03 2.98e-16  6.02e-02     0s
   4   2.65427839e+01  2.46183765e+01  6.22e-04 3.33e-16  8.12e-03     0s
   5   2.61972824e+01  2.54743796e+01  1.15e-04 2.22e-16  3.05e-03     0s
   6   2.60304839e+01  2.58467506e+01  4.52e-05 2.22e-16  7.75e-04     0s
   7   2.60020837e+01  2.59991700e+01  1.05e-07 3.33e-16  1.23e-05     0s
   8   2.60000021e+01  2.59999992e+01  2.57e-13 2.22e-16  1.23e-08     0s
   9   2.60000000e+01  2.60000000e+01  1.16e-13 3.33e-16  1.95e-14     0s

Barrier solved model in 9 iterations and 0.00 seconds
Optimal objective 2.60000000e+01


Root relaxation: objective 2.600000e+01, 65 iterations, 0.00 seconds

    Nodes    |    Current Node    |     Objective Bounds      |     Work
 Expl Unexpl |  Obj  Depth IntInf | Incumbent    BestBd   Gap | It/Node Time

*    0     0               0      26.0000000   26.00000  0.00%     -    0s

Explored 0 nodes (65 simplex iterations) in 0.00 seconds
Thread count was 1 (of 4 available processors)

Optimal solution found (tolerance 0.00e+00)
Best objective 2.600000000000e+01, best bound 2.600000000000e+01, gap 0.0%
Preprocessing time: 0.00 seconds
Gurobi run time: 0.00 seconds
Total run time: 0.00 seconds
Objective: 26
Solution:
1 x [i=1]
2 x [i=2]
2 x [i=3, i=25]
2 x [i=4, i=22]
1 x [i=4, i=23]
3 x [i=5, i=20]
1 x [i=6, i=19]
1 x [i=6, i=21]
1 x [i=7, i=18]
2 x [i=8, i=16]
2 x [i=9, i=17]
1 x [i=10, i=18]
2 x [i=11, i=15]
1 x [i=12, i=14]
2 x [i=13, i=14]
1 x [i=15, i=20]
1 x [i=17, i=21, i=24]
